c created by edge2cnf
p cnf 500 3100
-1 -2 0
-1 -3 0
-1 -4 0
-1 -5 0
-2 -3 0
-2 -4 0
-2 -5 0
-3 -4 0
-3 -5 0
-4 -5 0
1 2 3 4 5 0
-6 -7 0
-6 -8 0
-6 -9 0
-6 -10 0
-7 -8 0
-7 -9 0
-7 -10 0
-8 -9 0
-8 -10 0
-9 -10 0
6 7 8 9 10 0
-11 -12 0
-11 -13 0
-11 -14 0
-11 -15 0
-12 -13 0
-12 -14 0
-12 -15 0
-13 -14 0
-13 -15 0
-14 -15 0
11 12 13 14 15 0
-16 -17 0
-16 -18 0
-16 -19 0
-16 -20 0
-17 -18 0
-17 -19 0
-17 -20 0
-18 -19 0
-18 -20 0
-19 -20 0
16 17 18 19 20 0
-21 -22 0
-21 -23 0
-21 -24 0
-21 -25 0
-22 -23 0
-22 -24 0
-22 -25 0
-23 -24 0
-23 -25 0
-24 -25 0
21 22 23 24 25 0
-26 -27 0
-26 -28 0
-26 -29 0
-26 -30 0
-27 -28 0
-27 -29 0
-27 -30 0
-28 -29 0
-28 -30 0
-29 -30 0
26 27 28 29 30 0
-31 -32 0
-31 -33 0
-31 -34 0
-31 -35 0
-32 -33 0
-32 -34 0
-32 -35 0
-33 -34 0
-33 -35 0
-34 -35 0
31 32 33 34 35 0
-36 -37 0
-36 -38 0
-36 -39 0
-36 -40 0
-37 -38 0
-37 -39 0
-37 -40 0
-38 -39 0
-38 -40 0
-39 -40 0
36 37 38 39 40 0
-41 -42 0
-41 -43 0
-41 -44 0
-41 -45 0
-42 -43 0
-42 -44 0
-42 -45 0
-43 -44 0
-43 -45 0
-44 -45 0
41 42 43 44 45 0
-46 -47 0
-46 -48 0
-46 -49 0
-46 -50 0
-47 -48 0
-47 -49 0
-47 -50 0
-48 -49 0
-48 -50 0
-49 -50 0
46 47 48 49 50 0
-51 -52 0
-51 -53 0
-51 -54 0
-51 -55 0
-52 -53 0
-52 -54 0
-52 -55 0
-53 -54 0
-53 -55 0
-54 -55 0
51 52 53 54 55 0
-56 -57 0
-56 -58 0
-56 -59 0
-56 -60 0
-57 -58 0
-57 -59 0
-57 -60 0
-58 -59 0
-58 -60 0
-59 -60 0
56 57 58 59 60 0
-61 -62 0
-61 -63 0
-61 -64 0
-61 -65 0
-62 -63 0
-62 -64 0
-62 -65 0
-63 -64 0
-63 -65 0
-64 -65 0
61 62 63 64 65 0
-66 -67 0
-66 -68 0
-66 -69 0
-66 -70 0
-67 -68 0
-67 -69 0
-67 -70 0
-68 -69 0
-68 -70 0
-69 -70 0
66 67 68 69 70 0
-71 -72 0
-71 -73 0
-71 -74 0
-71 -75 0
-72 -73 0
-72 -74 0
-72 -75 0
-73 -74 0
-73 -75 0
-74 -75 0
71 72 73 74 75 0
-76 -77 0
-76 -78 0
-76 -79 0
-76 -80 0
-77 -78 0
-77 -79 0
-77 -80 0
-78 -79 0
-78 -80 0
-79 -80 0
76 77 78 79 80 0
-81 -82 0
-81 -83 0
-81 -84 0
-81 -85 0
-82 -83 0
-82 -84 0
-82 -85 0
-83 -84 0
-83 -85 0
-84 -85 0
81 82 83 84 85 0
-86 -87 0
-86 -88 0
-86 -89 0
-86 -90 0
-87 -88 0
-87 -89 0
-87 -90 0
-88 -89 0
-88 -90 0
-89 -90 0
86 87 88 89 90 0
-91 -92 0
-91 -93 0
-91 -94 0
-91 -95 0
-92 -93 0
-92 -94 0
-92 -95 0
-93 -94 0
-93 -95 0
-94 -95 0
91 92 93 94 95 0
-96 -97 0
-96 -98 0
-96 -99 0
-96 -100 0
-97 -98 0
-97 -99 0
-97 -100 0
-98 -99 0
-98 -100 0
-99 -100 0
96 97 98 99 100 0
-101 -102 0
-101 -103 0
-101 -104 0
-101 -105 0
-102 -103 0
-102 -104 0
-102 -105 0
-103 -104 0
-103 -105 0
-104 -105 0
101 102 103 104 105 0
-106 -107 0
-106 -108 0
-106 -109 0
-106 -110 0
-107 -108 0
-107 -109 0
-107 -110 0
-108 -109 0
-108 -110 0
-109 -110 0
106 107 108 109 110 0
-111 -112 0
-111 -113 0
-111 -114 0
-111 -115 0
-112 -113 0
-112 -114 0
-112 -115 0
-113 -114 0
-113 -115 0
-114 -115 0
111 112 113 114 115 0
-116 -117 0
-116 -118 0
-116 -119 0
-116 -120 0
-117 -118 0
-117 -119 0
-117 -120 0
-118 -119 0
-118 -120 0
-119 -120 0
116 117 118 119 120 0
-121 -122 0
-121 -123 0
-121 -124 0
-121 -125 0
-122 -123 0
-122 -124 0
-122 -125 0
-123 -124 0
-123 -125 0
-124 -125 0
121 122 123 124 125 0
-126 -127 0
-126 -128 0
-126 -129 0
-126 -130 0
-127 -128 0
-127 -129 0
-127 -130 0
-128 -129 0
-128 -130 0
-129 -130 0
126 127 128 129 130 0
-131 -132 0
-131 -133 0
-131 -134 0
-131 -135 0
-132 -133 0
-132 -134 0
-132 -135 0
-133 -134 0
-133 -135 0
-134 -135 0
131 132 133 134 135 0
-136 -137 0
-136 -138 0
-136 -139 0
-136 -140 0
-137 -138 0
-137 -139 0
-137 -140 0
-138 -139 0
-138 -140 0
-139 -140 0
136 137 138 139 140 0
-141 -142 0
-141 -143 0
-141 -144 0
-141 -145 0
-142 -143 0
-142 -144 0
-142 -145 0
-143 -144 0
-143 -145 0
-144 -145 0
141 142 143 144 145 0
-146 -147 0
-146 -148 0
-146 -149 0
-146 -150 0
-147 -148 0
-147 -149 0
-147 -150 0
-148 -149 0
-148 -150 0
-149 -150 0
146 147 148 149 150 0
-151 -152 0
-151 -153 0
-151 -154 0
-151 -155 0
-152 -153 0
-152 -154 0
-152 -155 0
-153 -154 0
-153 -155 0
-154 -155 0
151 152 153 154 155 0
-156 -157 0
-156 -158 0
-156 -159 0
-156 -160 0
-157 -158 0
-157 -159 0
-157 -160 0
-158 -159 0
-158 -160 0
-159 -160 0
156 157 158 159 160 0
-161 -162 0
-161 -163 0
-161 -164 0
-161 -165 0
-162 -163 0
-162 -164 0
-162 -165 0
-163 -164 0
-163 -165 0
-164 -165 0
161 162 163 164 165 0
-166 -167 0
-166 -168 0
-166 -169 0
-166 -170 0
-167 -168 0
-167 -169 0
-167 -170 0
-168 -169 0
-168 -170 0
-169 -170 0
166 167 168 169 170 0
-171 -172 0
-171 -173 0
-171 -174 0
-171 -175 0
-172 -173 0
-172 -174 0
-172 -175 0
-173 -174 0
-173 -175 0
-174 -175 0
171 172 173 174 175 0
-176 -177 0
-176 -178 0
-176 -179 0
-176 -180 0
-177 -178 0
-177 -179 0
-177 -180 0
-178 -179 0
-178 -180 0
-179 -180 0
176 177 178 179 180 0
-181 -182 0
-181 -183 0
-181 -184 0
-181 -185 0
-182 -183 0
-182 -184 0
-182 -185 0
-183 -184 0
-183 -185 0
-184 -185 0
181 182 183 184 185 0
-186 -187 0
-186 -188 0
-186 -189 0
-186 -190 0
-187 -188 0
-187 -189 0
-187 -190 0
-188 -189 0
-188 -190 0
-189 -190 0
186 187 188 189 190 0
-191 -192 0
-191 -193 0
-191 -194 0
-191 -195 0
-192 -193 0
-192 -194 0
-192 -195 0
-193 -194 0
-193 -195 0
-194 -195 0
191 192 193 194 195 0
-196 -197 0
-196 -198 0
-196 -199 0
-196 -200 0
-197 -198 0
-197 -199 0
-197 -200 0
-198 -199 0
-198 -200 0
-199 -200 0
196 197 198 199 200 0
-201 -202 0
-201 -203 0
-201 -204 0
-201 -205 0
-202 -203 0
-202 -204 0
-202 -205 0
-203 -204 0
-203 -205 0
-204 -205 0
201 202 203 204 205 0
-206 -207 0
-206 -208 0
-206 -209 0
-206 -210 0
-207 -208 0
-207 -209 0
-207 -210 0
-208 -209 0
-208 -210 0
-209 -210 0
206 207 208 209 210 0
-211 -212 0
-211 -213 0
-211 -214 0
-211 -215 0
-212 -213 0
-212 -214 0
-212 -215 0
-213 -214 0
-213 -215 0
-214 -215 0
211 212 213 214 215 0
-216 -217 0
-216 -218 0
-216 -219 0
-216 -220 0
-217 -218 0
-217 -219 0
-217 -220 0
-218 -219 0
-218 -220 0
-219 -220 0
216 217 218 219 220 0
-221 -222 0
-221 -223 0
-221 -224 0
-221 -225 0
-222 -223 0
-222 -224 0
-222 -225 0
-223 -224 0
-223 -225 0
-224 -225 0
221 222 223 224 225 0
-226 -227 0
-226 -228 0
-226 -229 0
-226 -230 0
-227 -228 0
-227 -229 0
-227 -230 0
-228 -229 0
-228 -230 0
-229 -230 0
226 227 228 229 230 0
-231 -232 0
-231 -233 0
-231 -234 0
-231 -235 0
-232 -233 0
-232 -234 0
-232 -235 0
-233 -234 0
-233 -235 0
-234 -235 0
231 232 233 234 235 0
-236 -237 0
-236 -238 0
-236 -239 0
-236 -240 0
-237 -238 0
-237 -239 0
-237 -240 0
-238 -239 0
-238 -240 0
-239 -240 0
236 237 238 239 240 0
-241 -242 0
-241 -243 0
-241 -244 0
-241 -245 0
-242 -243 0
-242 -244 0
-242 -245 0
-243 -244 0
-243 -245 0
-244 -245 0
241 242 243 244 245 0
-246 -247 0
-246 -248 0
-246 -249 0
-246 -250 0
-247 -248 0
-247 -249 0
-247 -250 0
-248 -249 0
-248 -250 0
-249 -250 0
246 247 248 249 250 0
-251 -252 0
-251 -253 0
-251 -254 0
-251 -255 0
-252 -253 0
-252 -254 0
-252 -255 0
-253 -254 0
-253 -255 0
-254 -255 0
251 252 253 254 255 0
-256 -257 0
-256 -258 0
-256 -259 0
-256 -260 0
-257 -258 0
-257 -259 0
-257 -260 0
-258 -259 0
-258 -260 0
-259 -260 0
256 257 258 259 260 0
-261 -262 0
-261 -263 0
-261 -264 0
-261 -265 0
-262 -263 0
-262 -264 0
-262 -265 0
-263 -264 0
-263 -265 0
-264 -265 0
261 262 263 264 265 0
-266 -267 0
-266 -268 0
-266 -269 0
-266 -270 0
-267 -268 0
-267 -269 0
-267 -270 0
-268 -269 0
-268 -270 0
-269 -270 0
266 267 268 269 270 0
-271 -272 0
-271 -273 0
-271 -274 0
-271 -275 0
-272 -273 0
-272 -274 0
-272 -275 0
-273 -274 0
-273 -275 0
-274 -275 0
271 272 273 274 275 0
-276 -277 0
-276 -278 0
-276 -279 0
-276 -280 0
-277 -278 0
-277 -279 0
-277 -280 0
-278 -279 0
-278 -280 0
-279 -280 0
276 277 278 279 280 0
-281 -282 0
-281 -283 0
-281 -284 0
-281 -285 0
-282 -283 0
-282 -284 0
-282 -285 0
-283 -284 0
-283 -285 0
-284 -285 0
281 282 283 284 285 0
-286 -287 0
-286 -288 0
-286 -289 0
-286 -290 0
-287 -288 0
-287 -289 0
-287 -290 0
-288 -289 0
-288 -290 0
-289 -290 0
286 287 288 289 290 0
-291 -292 0
-291 -293 0
-291 -294 0
-291 -295 0
-292 -293 0
-292 -294 0
-292 -295 0
-293 -294 0
-293 -295 0
-294 -295 0
291 292 293 294 295 0
-296 -297 0
-296 -298 0
-296 -299 0
-296 -300 0
-297 -298 0
-297 -299 0
-297 -300 0
-298 -299 0
-298 -300 0
-299 -300 0
296 297 298 299 300 0
-301 -302 0
-301 -303 0
-301 -304 0
-301 -305 0
-302 -303 0
-302 -304 0
-302 -305 0
-303 -304 0
-303 -305 0
-304 -305 0
301 302 303 304 305 0
-306 -307 0
-306 -308 0
-306 -309 0
-306 -310 0
-307 -308 0
-307 -309 0
-307 -310 0
-308 -309 0
-308 -310 0
-309 -310 0
306 307 308 309 310 0
-311 -312 0
-311 -313 0
-311 -314 0
-311 -315 0
-312 -313 0
-312 -314 0
-312 -315 0
-313 -314 0
-313 -315 0
-314 -315 0
311 312 313 314 315 0
-316 -317 0
-316 -318 0
-316 -319 0
-316 -320 0
-317 -318 0
-317 -319 0
-317 -320 0
-318 -319 0
-318 -320 0
-319 -320 0
316 317 318 319 320 0
-321 -322 0
-321 -323 0
-321 -324 0
-321 -325 0
-322 -323 0
-322 -324 0
-322 -325 0
-323 -324 0
-323 -325 0
-324 -325 0
321 322 323 324 325 0
-326 -327 0
-326 -328 0
-326 -329 0
-326 -330 0
-327 -328 0
-327 -329 0
-327 -330 0
-328 -329 0
-328 -330 0
-329 -330 0
326 327 328 329 330 0
-331 -332 0
-331 -333 0
-331 -334 0
-331 -335 0
-332 -333 0
-332 -334 0
-332 -335 0
-333 -334 0
-333 -335 0
-334 -335 0
331 332 333 334 335 0
-336 -337 0
-336 -338 0
-336 -339 0
-336 -340 0
-337 -338 0
-337 -339 0
-337 -340 0
-338 -339 0
-338 -340 0
-339 -340 0
336 337 338 339 340 0
-341 -342 0
-341 -343 0
-341 -344 0
-341 -345 0
-342 -343 0
-342 -344 0
-342 -345 0
-343 -344 0
-343 -345 0
-344 -345 0
341 342 343 344 345 0
-346 -347 0
-346 -348 0
-346 -349 0
-346 -350 0
-347 -348 0
-347 -349 0
-347 -350 0
-348 -349 0
-348 -350 0
-349 -350 0
346 347 348 349 350 0
-351 -352 0
-351 -353 0
-351 -354 0
-351 -355 0
-352 -353 0
-352 -354 0
-352 -355 0
-353 -354 0
-353 -355 0
-354 -355 0
351 352 353 354 355 0
-356 -357 0
-356 -358 0
-356 -359 0
-356 -360 0
-357 -358 0
-357 -359 0
-357 -360 0
-358 -359 0
-358 -360 0
-359 -360 0
356 357 358 359 360 0
-361 -362 0
-361 -363 0
-361 -364 0
-361 -365 0
-362 -363 0
-362 -364 0
-362 -365 0
-363 -364 0
-363 -365 0
-364 -365 0
361 362 363 364 365 0
-366 -367 0
-366 -368 0
-366 -369 0
-366 -370 0
-367 -368 0
-367 -369 0
-367 -370 0
-368 -369 0
-368 -370 0
-369 -370 0
366 367 368 369 370 0
-371 -372 0
-371 -373 0
-371 -374 0
-371 -375 0
-372 -373 0
-372 -374 0
-372 -375 0
-373 -374 0
-373 -375 0
-374 -375 0
371 372 373 374 375 0
-376 -377 0
-376 -378 0
-376 -379 0
-376 -380 0
-377 -378 0
-377 -379 0
-377 -380 0
-378 -379 0
-378 -380 0
-379 -380 0
376 377 378 379 380 0
-381 -382 0
-381 -383 0
-381 -384 0
-381 -385 0
-382 -383 0
-382 -384 0
-382 -385 0
-383 -384 0
-383 -385 0
-384 -385 0
381 382 383 384 385 0
-386 -387 0
-386 -388 0
-386 -389 0
-386 -390 0
-387 -388 0
-387 -389 0
-387 -390 0
-388 -389 0
-388 -390 0
-389 -390 0
386 387 388 389 390 0
-391 -392 0
-391 -393 0
-391 -394 0
-391 -395 0
-392 -393 0
-392 -394 0
-392 -395 0
-393 -394 0
-393 -395 0
-394 -395 0
391 392 393 394 395 0
-396 -397 0
-396 -398 0
-396 -399 0
-396 -400 0
-397 -398 0
-397 -399 0
-397 -400 0
-398 -399 0
-398 -400 0
-399 -400 0
396 397 398 399 400 0
-401 -402 0
-401 -403 0
-401 -404 0
-401 -405 0
-402 -403 0
-402 -404 0
-402 -405 0
-403 -404 0
-403 -405 0
-404 -405 0
401 402 403 404 405 0
-406 -407 0
-406 -408 0
-406 -409 0
-406 -410 0
-407 -408 0
-407 -409 0
-407 -410 0
-408 -409 0
-408 -410 0
-409 -410 0
406 407 408 409 410 0
-411 -412 0
-411 -413 0
-411 -414 0
-411 -415 0
-412 -413 0
-412 -414 0
-412 -415 0
-413 -414 0
-413 -415 0
-414 -415 0
411 412 413 414 415 0
-416 -417 0
-416 -418 0
-416 -419 0
-416 -420 0
-417 -418 0
-417 -419 0
-417 -420 0
-418 -419 0
-418 -420 0
-419 -420 0
416 417 418 419 420 0
-421 -422 0
-421 -423 0
-421 -424 0
-421 -425 0
-422 -423 0
-422 -424 0
-422 -425 0
-423 -424 0
-423 -425 0
-424 -425 0
421 422 423 424 425 0
-426 -427 0
-426 -428 0
-426 -429 0
-426 -430 0
-427 -428 0
-427 -429 0
-427 -430 0
-428 -429 0
-428 -430 0
-429 -430 0
426 427 428 429 430 0
-431 -432 0
-431 -433 0
-431 -434 0
-431 -435 0
-432 -433 0
-432 -434 0
-432 -435 0
-433 -434 0
-433 -435 0
-434 -435 0
431 432 433 434 435 0
-436 -437 0
-436 -438 0
-436 -439 0
-436 -440 0
-437 -438 0
-437 -439 0
-437 -440 0
-438 -439 0
-438 -440 0
-439 -440 0
436 437 438 439 440 0
-441 -442 0
-441 -443 0
-441 -444 0
-441 -445 0
-442 -443 0
-442 -444 0
-442 -445 0
-443 -444 0
-443 -445 0
-444 -445 0
441 442 443 444 445 0
-446 -447 0
-446 -448 0
-446 -449 0
-446 -450 0
-447 -448 0
-447 -449 0
-447 -450 0
-448 -449 0
-448 -450 0
-449 -450 0
446 447 448 449 450 0
-451 -452 0
-451 -453 0
-451 -454 0
-451 -455 0
-452 -453 0
-452 -454 0
-452 -455 0
-453 -454 0
-453 -455 0
-454 -455 0
451 452 453 454 455 0
-456 -457 0
-456 -458 0
-456 -459 0
-456 -460 0
-457 -458 0
-457 -459 0
-457 -460 0
-458 -459 0
-458 -460 0
-459 -460 0
456 457 458 459 460 0
-461 -462 0
-461 -463 0
-461 -464 0
-461 -465 0
-462 -463 0
-462 -464 0
-462 -465 0
-463 -464 0
-463 -465 0
-464 -465 0
461 462 463 464 465 0
-466 -467 0
-466 -468 0
-466 -469 0
-466 -470 0
-467 -468 0
-467 -469 0
-467 -470 0
-468 -469 0
-468 -470 0
-469 -470 0
466 467 468 469 470 0
-471 -472 0
-471 -473 0
-471 -474 0
-471 -475 0
-472 -473 0
-472 -474 0
-472 -475 0
-473 -474 0
-473 -475 0
-474 -475 0
471 472 473 474 475 0
-476 -477 0
-476 -478 0
-476 -479 0
-476 -480 0
-477 -478 0
-477 -479 0
-477 -480 0
-478 -479 0
-478 -480 0
-479 -480 0
476 477 478 479 480 0
-481 -482 0
-481 -483 0
-481 -484 0
-481 -485 0
-482 -483 0
-482 -484 0
-482 -485 0
-483 -484 0
-483 -485 0
-484 -485 0
481 482 483 484 485 0
-486 -487 0
-486 -488 0
-486 -489 0
-486 -490 0
-487 -488 0
-487 -489 0
-487 -490 0
-488 -489 0
-488 -490 0
-489 -490 0
486 487 488 489 490 0
-491 -492 0
-491 -493 0
-491 -494 0
-491 -495 0
-492 -493 0
-492 -494 0
-492 -495 0
-493 -494 0
-493 -495 0
-494 -495 0
491 492 493 494 495 0
-496 -497 0
-496 -498 0
-496 -499 0
-496 -500 0
-497 -498 0
-497 -499 0
-497 -500 0
-498 -499 0
-498 -500 0
-499 -500 0
496 497 498 499 500 0
-41 -46 0
-42 -47 0
-43 -48 0
-44 -49 0
-45 -50 0
-71 -76 0
-72 -77 0
-73 -78 0
-74 -79 0
-75 -80 0
-76 -86 0
-77 -87 0
-78 -88 0
-79 -89 0
-80 -90 0
-81 -101 0
-82 -102 0
-83 -103 0
-84 -104 0
-85 -105 0
-86 -96 0
-87 -97 0
-88 -98 0
-89 -99 0
-90 -100 0
-106 -126 0
-107 -127 0
-108 -128 0
-109 -129 0
-110 -130 0
-121 -131 0
-122 -132 0
-123 -133 0
-124 -134 0
-125 -135 0
-126 -146 0
-127 -147 0
-128 -148 0
-129 -149 0
-130 -150 0
-141 -151 0
-142 -152 0
-143 -153 0
-144 -154 0
-145 -155 0
-141 -161 0
-142 -162 0
-143 -163 0
-144 -164 0
-145 -165 0
-171 -176 0
-172 -177 0
-173 -178 0
-174 -179 0
-175 -180 0
-181 -186 0
-182 -187 0
-183 -188 0
-184 -189 0
-185 -190 0
-191 -211 0
-192 -212 0
-193 -213 0
-194 -214 0
-195 -215 0
-196 -211 0
-197 -212 0
-198 -213 0
-199 -214 0
-200 -215 0
-201 -206 0
-202 -207 0
-203 -208 0
-204 -209 0
-205 -210 0
-226 -236 0
-227 -237 0
-228 -238 0
-229 -239 0
-230 -240 0
-236 -246 0
-237 -247 0
-238 -248 0
-239 -249 0
-240 -250 0
-241 -261 0
-242 -262 0
-243 -263 0
-244 -264 0
-245 -265 0
-246 -266 0
-247 -267 0
-248 -268 0
-249 -269 0
-250 -270 0
-256 -261 0
-257 -262 0
-258 -263 0
-259 -264 0
-260 -265 0
-301 -306 0
-302 -307 0
-303 -308 0
-304 -309 0
-305 -310 0
-306 -326 0
-307 -327 0
-308 -328 0
-309 -329 0
-310 -330 0
-316 -321 0
-317 -322 0
-318 -323 0
-319 -324 0
-320 -325 0
-316 -326 0
-317 -327 0
-318 -328 0
-319 -329 0
-320 -330 0
-336 -351 0
-337 -352 0
-338 -353 0
-339 -354 0
-340 -355 0
-341 -346 0
-342 -347 0
-343 -348 0
-344 -349 0
-345 -350 0
-361 -366 0
-362 -367 0
-363 -368 0
-364 -369 0
-365 -370 0
-361 -376 0
-362 -377 0
-363 -378 0
-364 -379 0
-365 -380 0
-371 -381 0
-372 -382 0
-373 -383 0
-374 -384 0
-375 -385 0
-386 -406 0
-387 -407 0
-388 -408 0
-389 -409 0
-390 -410 0
-406 -421 0
-407 -422 0
-408 -423 0
-409 -424 0
-410 -425 0
-436 -451 0
-437 -452 0
-438 -453 0
-439 -454 0
-440 -455 0
-461 -466 0
-462 -467 0
-463 -468 0
-464 -469 0
-465 -470 0
-476 -486 0
-477 -487 0
-478 -488 0
-479 -489 0
-480 -490 0
-491 -496 0
-492 -497 0
-493 -498 0
-494 -499 0
-495 -500 0
-6 -491 0
-7 -492 0
-8 -493 0
-9 -494 0
-10 -495 0
-1 -36 0
-2 -37 0
-3 -38 0
-4 -39 0
-5 -40 0
-1 -66 0
-2 -67 0
-3 -68 0
-4 -69 0
-5 -70 0
-1 -141 0
-2 -142 0
-3 -143 0
-4 -144 0
-5 -145 0
-1 -206 0
-2 -207 0
-3 -208 0
-4 -209 0
-5 -210 0
-1 -331 0
-2 -332 0
-3 -333 0
-4 -334 0
-5 -335 0
-1 -416 0
-2 -417 0
-3 -418 0
-4 -419 0
-5 -420 0
-1 -421 0
-2 -422 0
-3 -423 0
-4 -424 0
-5 -425 0
-6 -56 0
-7 -57 0
-8 -58 0
-9 -59 0
-10 -60 0
-6 -66 0
-7 -67 0
-8 -68 0
-9 -69 0
-10 -70 0
-6 -76 0
-7 -77 0
-8 -78 0
-9 -79 0
-10 -80 0
-6 -111 0
-7 -112 0
-8 -113 0
-9 -114 0
-10 -115 0
-6 -151 0
-7 -152 0
-8 -153 0
-9 -154 0
-10 -155 0
-6 -196 0
-7 -197 0
-8 -198 0
-9 -199 0
-10 -200 0
-6 -201 0
-7 -202 0
-8 -203 0
-9 -204 0
-10 -205 0
-6 -291 0
-7 -292 0
-8 -293 0
-9 -294 0
-10 -295 0
-6 -331 0
-7 -332 0
-8 -333 0
-9 -334 0
-10 -335 0
-6 -446 0
-7 -447 0
-8 -448 0
-9 -449 0
-10 -450 0
-6 -461 0
-7 -462 0
-8 -463 0
-9 -464 0
-10 -465 0
-11 -91 0
-12 -92 0
-13 -93 0
-14 -94 0
-15 -95 0
-11 -101 0
-12 -102 0
-13 -103 0
-14 -104 0
-15 -105 0
-11 -256 0
-12 -257 0
-13 -258 0
-14 -259 0
-15 -260 0
-11 -351 0
-12 -352 0
-13 -353 0
-14 -354 0
-15 -355 0
-11 -376 0
-12 -377 0
-13 -378 0
-14 -379 0
-15 -380 0
-11 -396 0
-12 -397 0
-13 -398 0
-14 -399 0
-15 -400 0
-16 -51 0
-17 -52 0
-18 -53 0
-19 -54 0
-20 -55 0
-16 -166 0
-17 -167 0
-18 -168 0
-19 -169 0
-20 -170 0
-16 -226 0
-17 -227 0
-18 -228 0
-19 -229 0
-20 -230 0
-16 -351 0
-17 -352 0
-18 -353 0
-19 -354 0
-20 -355 0
-16 -421 0
-17 -422 0
-18 -423 0
-19 -424 0
-20 -425 0
-16 -426 0
-17 -427 0
-18 -428 0
-19 -429 0
-20 -430 0
-16 -486 0
-17 -487 0
-18 -488 0
-19 -489 0
-20 -490 0
-21 -111 0
-22 -112 0
-23 -113 0
-24 -114 0
-25 -115 0
-21 -176 0
-22 -177 0
-23 -178 0
-24 -179 0
-25 -180 0
-21 -201 0
-22 -202 0
-23 -203 0
-24 -204 0
-25 -205 0
-21 -246 0
-22 -247 0
-23 -248 0
-24 -249 0
-25 -250 0
-21 -276 0
-22 -277 0
-23 -278 0
-24 -279 0
-25 -280 0
-21 -376 0
-22 -377 0
-23 -378 0
-24 -379 0
-25 -380 0
-21 -396 0
-22 -397 0
-23 -398 0
-24 -399 0
-25 -400 0
-21 -476 0
-22 -477 0
-23 -478 0
-24 -479 0
-25 -480 0
-26 -66 0
-27 -67 0
-28 -68 0
-29 -69 0
-30 -70 0
-26 -191 0
-27 -192 0
-28 -193 0
-29 -194 0
-30 -195 0
-26 -226 0
-27 -227 0
-28 -228 0
-29 -229 0
-30 -230 0
-26 -401 0
-27 -402 0
-28 -403 0
-29 -404 0
-30 -405 0
-26 -406 0
-27 -407 0
-28 -408 0
-29 -409 0
-30 -410 0
-26 -471 0
-27 -472 0
-28 -473 0
-29 -474 0
-30 -475 0
-31 -126 0
-32 -127 0
-33 -128 0
-34 -129 0
-35 -130 0
-31 -206 0
-32 -207 0
-33 -208 0
-34 -209 0
-35 -210 0
-31 -261 0
-32 -262 0
-33 -263 0
-34 -264 0
-35 -265 0
-31 -361 0
-32 -362 0
-33 -363 0
-34 -364 0
-35 -365 0
-31 -366 0
-32 -367 0
-33 -368 0
-34 -369 0
-35 -370 0
-31 -406 0
-32 -407 0
-33 -408 0
-34 -409 0
-35 -410 0
-31 -416 0
-32 -417 0
-33 -418 0
-34 -419 0
-35 -420 0
-31 -481 0
-32 -482 0
-33 -483 0
-34 -484 0
-35 -485 0
-36 -206 0
-37 -207 0
-38 -208 0
-39 -209 0
-40 -210 0
-36 -221 0
-37 -222 0
-38 -223 0
-39 -224 0
-40 -225 0
-36 -261 0
-37 -262 0
-38 -263 0
-39 -264 0
-40 -265 0
-36 -346 0
-37 -347 0
-38 -348 0
-39 -349 0
-40 -350 0
-36 -401 0
-37 -402 0
-38 -403 0
-39 -404 0
-40 -405 0
-36 -426 0
-37 -427 0
-38 -428 0
-39 -429 0
-40 -430 0
-41 -231 0
-42 -232 0
-43 -233 0
-44 -234 0
-45 -235 0
-41 -271 0
-42 -272 0
-43 -273 0
-44 -274 0
-45 -275 0
-41 -316 0
-42 -317 0
-43 -318 0
-44 -319 0
-45 -320 0
-41 -326 0
-42 -327 0
-43 -328 0
-44 -329 0
-45 -330 0
-41 -341 0
-42 -342 0
-43 -343 0
-44 -344 0
-45 -345 0
-41 -456 0
-42 -457 0
-43 -458 0
-44 -459 0
-45 -460 0
-46 -96 0
-47 -97 0
-48 -98 0
-49 -99 0
-50 -100 0
-46 -126 0
-47 -127 0
-48 -128 0
-49 -129 0
-50 -130 0
-46 -146 0
-47 -147 0
-48 -148 0
-49 -149 0
-50 -150 0
-46 -201 0
-47 -202 0
-48 -203 0
-49 -204 0
-50 -205 0
-46 -291 0
-47 -292 0
-48 -293 0
-49 -294 0
-50 -295 0
-46 -306 0
-47 -307 0
-48 -308 0
-49 -309 0
-50 -310 0
-46 -321 0
-47 -322 0
-48 -323 0
-49 -324 0
-50 -325 0
-46 -336 0
-47 -337 0
-48 -338 0
-49 -339 0
-50 -340 0
-46 -431 0
-47 -432 0
-48 -433 0
-49 -434 0
-50 -435 0
-46 -481 0
-47 -482 0
-48 -483 0
-49 -484 0
-50 -485 0
-51 -161 0
-52 -162 0
-53 -163 0
-54 -164 0
-55 -165 0
-51 -271 0
-52 -272 0
-53 -273 0
-54 -274 0
-55 -275 0
-51 -286 0
-52 -287 0
-53 -288 0
-54 -289 0
-55 -290 0
-51 -376 0
-52 -377 0
-53 -378 0
-54 -379 0
-55 -380 0
-51 -431 0
-52 -432 0
-53 -433 0
-54 -434 0
-55 -435 0
-56 -91 0
-57 -92 0
-58 -93 0
-59 -94 0
-60 -95 0
-56 -171 0
-57 -172 0
-58 -173 0
-59 -174 0
-60 -175 0
-56 -201 0
-57 -202 0
-58 -203 0
-59 -204 0
-60 -205 0
-56 -346 0
-57 -347 0
-58 -348 0
-59 -349 0
-60 -350 0
-56 -431 0
-57 -432 0
-58 -433 0
-59 -434 0
-60 -435 0
-61 -126 0
-62 -127 0
-63 -128 0
-64 -129 0
-65 -130 0
-61 -166 0
-62 -167 0
-63 -168 0
-64 -169 0
-65 -170 0
-61 -196 0
-62 -197 0
-63 -198 0
-64 -199 0
-65 -200 0
-61 -231 0
-62 -232 0
-63 -233 0
-64 -234 0
-65 -235 0
-61 -236 0
-62 -237 0
-63 -238 0
-64 -239 0
-65 -240 0
-61 -331 0
-62 -332 0
-63 -333 0
-64 -334 0
-65 -335 0
-61 -366 0
-62 -367 0
-63 -368 0
-64 -369 0
-65 -370 0
-61 -406 0
-62 -407 0
-63 -408 0
-64 -409 0
-65 -410 0
-66 -101 0
-67 -102 0
-68 -103 0
-69 -104 0
-70 -105 0
-66 -201 0
-67 -202 0
-68 -203 0
-69 -204 0
-70 -205 0
-66 -241 0
-67 -242 0
-68 -243 0
-69 -244 0
-70 -245 0
-66 -266 0
-67 -267 0
-68 -268 0
-69 -269 0
-70 -270 0
-66 -291 0
-67 -292 0
-68 -293 0
-69 -294 0
-70 -295 0
-66 -301 0
-67 -302 0
-68 -303 0
-69 -304 0
-70 -305 0
-66 -306 0
-67 -307 0
-68 -308 0
-69 -309 0
-70 -310 0
-66 -491 0
-67 -492 0
-68 -493 0
-69 -494 0
-70 -495 0
-71 -131 0
-72 -132 0
-73 -133 0
-74 -134 0
-75 -135 0
-71 -271 0
-72 -272 0
-73 -273 0
-74 -274 0
-75 -275 0
-71 -321 0
-72 -322 0
-73 -323 0
-74 -324 0
-75 -325 0
-71 -331 0
-72 -332 0
-73 -333 0
-74 -334 0
-75 -335 0
-71 -346 0
-72 -347 0
-73 -348 0
-74 -349 0
-75 -350 0
-71 -401 0
-72 -402 0
-73 -403 0
-74 -404 0
-75 -405 0
-71 -471 0
-72 -472 0
-73 -473 0
-74 -474 0
-75 -475 0
-76 -146 0
-77 -147 0
-78 -148 0
-79 -149 0
-80 -150 0
-76 -151 0
-77 -152 0
-78 -153 0
-79 -154 0
-80 -155 0
-76 -201 0
-77 -202 0
-78 -203 0
-79 -204 0
-80 -205 0
-76 -306 0
-77 -307 0
-78 -308 0
-79 -309 0
-80 -310 0
-76 -406 0
-77 -407 0
-78 -408 0
-79 -409 0
-80 -410 0
-76 -476 0
-77 -477 0
-78 -478 0
-79 -479 0
-80 -480 0
-76 -481 0
-77 -482 0
-78 -483 0
-79 -484 0
-80 -485 0
-81 -131 0
-82 -132 0
-83 -133 0
-84 -134 0
-85 -135 0
-81 -156 0
-82 -157 0
-83 -158 0
-84 -159 0
-85 -160 0
-81 -226 0
-82 -227 0
-83 -228 0
-84 -229 0
-85 -230 0
-81 -251 0
-82 -252 0
-83 -253 0
-84 -254 0
-85 -255 0
-81 -281 0
-82 -282 0
-83 -283 0
-84 -284 0
-85 -285 0
-81 -286 0
-82 -287 0
-83 -288 0
-84 -289 0
-85 -290 0
-81 -291 0
-82 -292 0
-83 -293 0
-84 -294 0
-85 -295 0
-81 -301 0
-82 -302 0
-83 -303 0
-84 -304 0
-85 -305 0
-81 -361 0
-82 -362 0
-83 -363 0
-84 -364 0
-85 -365 0
-81 -446 0
-82 -447 0
-83 -448 0
-84 -449 0
-85 -450 0
-81 -481 0
-82 -482 0
-83 -483 0
-84 -484 0
-85 -485 0
-86 -436 0
-87 -437 0
-88 -438 0
-89 -439 0
-90 -440 0
-86 -461 0
-87 -462 0
-88 -463 0
-89 -464 0
-90 -465 0
-86 -496 0
-87 -497 0
-88 -498 0
-89 -499 0
-90 -500 0
-91 -116 0
-92 -117 0
-93 -118 0
-94 -119 0
-95 -120 0
-91 -171 0
-92 -172 0
-93 -173 0
-94 -174 0
-95 -175 0
-96 -146 0
-97 -147 0
-98 -148 0
-99 -149 0
-100 -150 0
-96 -426 0
-97 -427 0
-98 -428 0
-99 -429 0
-100 -430 0
-101 -146 0
-102 -147 0
-103 -148 0
-104 -149 0
-105 -150 0
-101 -346 0
-102 -347 0
-103 -348 0
-104 -349 0
-105 -350 0
-101 -381 0
-102 -382 0
-103 -383 0
-104 -384 0
-105 -385 0
-101 -416 0
-102 -417 0
-103 -418 0
-104 -419 0
-105 -420 0
-101 -426 0
-102 -427 0
-103 -428 0
-104 -429 0
-105 -430 0
-101 -461 0
-102 -462 0
-103 -463 0
-104 -464 0
-105 -465 0
-106 -261 0
-107 -262 0
-108 -263 0
-109 -264 0
-110 -265 0
-106 -281 0
-107 -282 0
-108 -283 0
-109 -284 0
-110 -285 0
-106 -466 0
-107 -467 0
-108 -468 0
-109 -469 0
-110 -470 0
-111 -266 0
-112 -267 0
-113 -268 0
-114 -269 0
-115 -270 0
-111 -281 0
-112 -282 0
-113 -283 0
-114 -284 0
-115 -285 0
-111 -331 0
-112 -332 0
-113 -333 0
-114 -334 0
-115 -335 0
-111 -416 0
-112 -417 0
-113 -418 0
-114 -419 0
-115 -420 0
-111 -421 0
-112 -422 0
-113 -423 0
-114 -424 0
-115 -425 0
-116 -151 0
-117 -152 0
-118 -153 0
-119 -154 0
-120 -155 0
-116 -376 0
-117 -377 0
-118 -378 0
-119 -379 0
-120 -380 0
-116 -486 0
-117 -487 0
-118 -488 0
-119 -489 0
-120 -490 0
-116 -491 0
-117 -492 0
-118 -493 0
-119 -494 0
-120 -495 0
-121 -216 0
-122 -217 0
-123 -218 0
-124 -219 0
-125 -220 0
-121 -276 0
-122 -277 0
-123 -278 0
-124 -279 0
-125 -280 0
-121 -281 0
-122 -282 0
-123 -283 0
-124 -284 0
-125 -285 0
-121 -371 0
-122 -372 0
-123 -373 0
-124 -374 0
-125 -375 0
-121 -401 0
-122 -402 0
-123 -403 0
-124 -404 0
-125 -405 0
-121 -406 0
-122 -407 0
-123 -408 0
-124 -409 0
-125 -410 0
-121 -416 0
-122 -417 0
-123 -418 0
-124 -419 0
-125 -420 0
-126 -256 0
-127 -257 0
-128 -258 0
-129 -259 0
-130 -260 0
-126 -291 0
-127 -292 0
-128 -293 0
-129 -294 0
-130 -295 0
-126 -336 0
-127 -337 0
-128 -338 0
-129 -339 0
-130 -340 0
-126 -351 0
-127 -352 0
-128 -353 0
-129 -354 0
-130 -355 0
-126 -356 0
-127 -357 0
-128 -358 0
-129 -359 0
-130 -360 0
-126 -416 0
-127 -417 0
-128 -418 0
-129 -419 0
-130 -420 0
-126 -471 0
-127 -472 0
-128 -473 0
-129 -474 0
-130 -475 0
-126 -476 0
-127 -477 0
-128 -478 0
-129 -479 0
-130 -480 0
-131 -181 0
-132 -182 0
-133 -183 0
-134 -184 0
-135 -185 0
-131 -256 0
-132 -257 0
-133 -258 0
-134 -259 0
-135 -260 0
-131 -291 0
-132 -292 0
-133 -293 0
-134 -294 0
-135 -295 0
-131 -306 0
-132 -307 0
-133 -308 0
-134 -309 0
-135 -310 0
-131 -346 0
-132 -347 0
-133 -348 0
-134 -349 0
-135 -350 0
-131 -446 0
-132 -447 0
-133 -448 0
-134 -449 0
-135 -450 0
-131 -491 0
-132 -492 0
-133 -493 0
-134 -494 0
-135 -495 0
-136 -226 0
-137 -227 0
-138 -228 0
-139 -229 0
-140 -230 0
-136 -286 0
-137 -287 0
-138 -288 0
-139 -289 0
-140 -290 0
-136 -311 0
-137 -312 0
-138 -313 0
-139 -314 0
-140 -315 0
-136 -346 0
-137 -347 0
-138 -348 0
-139 -349 0
-140 -350 0
-136 -431 0
-137 -432 0
-138 -433 0
-139 -434 0
-140 -435 0
-136 -491 0
-137 -492 0
-138 -493 0
-139 -494 0
-140 -495 0
-136 -496 0
-137 -497 0
-138 -498 0
-139 -499 0
-140 -500 0
-141 -181 0
-142 -182 0
-143 -183 0
-144 -184 0
-145 -185 0
-141 -211 0
-142 -212 0
-143 -213 0
-144 -214 0
-145 -215 0
-141 -251 0
-142 -252 0
-143 -253 0
-144 -254 0
-145 -255 0
-141 -316 0
-142 -317 0
-143 -318 0
-144 -319 0
-145 -320 0
-141 -496 0
-142 -497 0
-143 -498 0
-144 -499 0
-145 -500 0
-146 -251 0
-147 -252 0
-148 -253 0
-149 -254 0
-150 -255 0
-146 -441 0
-147 -442 0
-148 -443 0
-149 -444 0
-150 -445 0
-146 -466 0
-147 -467 0
-148 -468 0
-149 -469 0
-150 -470 0
-151 -326 0
-152 -327 0
-153 -328 0
-154 -329 0
-155 -330 0
-151 -351 0
-152 -352 0
-153 -353 0
-154 -354 0
-155 -355 0
-151 -366 0
-152 -367 0
-153 -368 0
-154 -369 0
-155 -370 0
-151 -371 0
-152 -372 0
-153 -373 0
-154 -374 0
-155 -375 0
-151 -411 0
-152 -412 0
-153 -413 0
-154 -414 0
-155 -415 0
-151 -436 0
-152 -437 0
-153 -438 0
-154 -439 0
-155 -440 0
-151 -491 0
-152 -492 0
-153 -493 0
-154 -494 0
-155 -495 0
-156 -306 0
-157 -307 0
-158 -308 0
-159 -309 0
-160 -310 0
-156 -376 0
-157 -377 0
-158 -378 0
-159 -379 0
-160 -380 0
-156 -391 0
-157 -392 0
-158 -393 0
-159 -394 0
-160 -395 0
-156 -406 0
-157 -407 0
-158 -408 0
-159 -409 0
-160 -410 0
-156 -416 0
-157 -417 0
-158 -418 0
-159 -419 0
-160 -420 0
-156 -481 0
-157 -482 0
-158 -483 0
-159 -484 0
-160 -485 0
-161 -256 0
-162 -257 0
-163 -258 0
-164 -259 0
-165 -260 0
-161 -411 0
-162 -412 0
-163 -413 0
-164 -414 0
-165 -415 0
-161 -466 0
-162 -467 0
-163 -468 0
-164 -469 0
-165 -470 0
-166 -196 0
-167 -197 0
-168 -198 0
-169 -199 0
-170 -200 0
-166 -286 0
-167 -287 0
-168 -288 0
-169 -289 0
-170 -290 0
-166 -336 0
-167 -337 0
-168 -338 0
-169 -339 0
-170 -340 0
-166 -416 0
-167 -417 0
-168 -418 0
-169 -419 0
-170 -420 0
-166 -471 0
-167 -472 0
-168 -473 0
-169 -474 0
-170 -475 0
-171 -291 0
-172 -292 0
-173 -293 0
-174 -294 0
-175 -295 0
-171 -306 0
-172 -307 0
-173 -308 0
-174 -309 0
-175 -310 0
-171 -361 0
-172 -362 0
-173 -363 0
-174 -364 0
-175 -365 0
-171 -381 0
-172 -382 0
-173 -383 0
-174 -384 0
-175 -385 0
-171 -386 0
-172 -387 0
-173 -388 0
-174 -389 0
-175 -390 0
-176 -271 0
-177 -272 0
-178 -273 0
-179 -274 0
-180 -275 0
-176 -311 0
-177 -312 0
-178 -313 0
-179 -314 0
-180 -315 0
-176 -326 0
-177 -327 0
-178 -328 0
-179 -329 0
-180 -330 0
-176 -361 0
-177 -362 0
-178 -363 0
-179 -364 0
-180 -365 0
-176 -371 0
-177 -372 0
-178 -373 0
-179 -374 0
-180 -375 0
-176 -416 0
-177 -417 0
-178 -418 0
-179 -419 0
-180 -420 0
-176 -426 0
-177 -427 0
-178 -428 0
-179 -429 0
-180 -430 0
-176 -466 0
-177 -467 0
-178 -468 0
-179 -469 0
-180 -470 0
-181 -301 0
-182 -302 0
-183 -303 0
-184 -304 0
-185 -305 0
-181 -421 0
-182 -422 0
-183 -423 0
-184 -424 0
-185 -425 0
-181 -431 0
-182 -432 0
-183 -433 0
-184 -434 0
-185 -435 0
-181 -441 0
-182 -442 0
-183 -443 0
-184 -444 0
-185 -445 0
-186 -276 0
-187 -277 0
-188 -278 0
-189 -279 0
-190 -280 0
-186 -301 0
-187 -302 0
-188 -303 0
-189 -304 0
-190 -305 0
-186 -351 0
-187 -352 0
-188 -353 0
-189 -354 0
-190 -355 0
-186 -431 0
-187 -432 0
-188 -433 0
-189 -434 0
-190 -435 0
-186 -481 0
-187 -482 0
-188 -483 0
-189 -484 0
-190 -485 0
-191 -316 0
-192 -317 0
-193 -318 0
-194 -319 0
-195 -320 0
-191 -401 0
-192 -402 0
-193 -403 0
-194 -404 0
-195 -405 0
-191 -476 0
-192 -477 0
-193 -478 0
-194 -479 0
-195 -480 0
-196 -316 0
-197 -317 0
-198 -318 0
-199 -319 0
-200 -320 0
-196 -391 0
-197 -392 0
-198 -393 0
-199 -394 0
-200 -395 0
-196 -466 0
-197 -467 0
-198 -468 0
-199 -469 0
-200 -470 0
-196 -476 0
-197 -477 0
-198 -478 0
-199 -479 0
-200 -480 0
-196 -481 0
-197 -482 0
-198 -483 0
-199 -484 0
-200 -485 0
-201 -226 0
-202 -227 0
-203 -228 0
-204 -229 0
-205 -230 0
-201 -291 0
-202 -292 0
-203 -293 0
-204 -294 0
-205 -295 0
-201 -381 0
-202 -382 0
-203 -383 0
-204 -384 0
-205 -385 0
-201 -391 0
-202 -392 0
-203 -393 0
-204 -394 0
-205 -395 0
-206 -266 0
-207 -267 0
-208 -268 0
-209 -269 0
-210 -270 0
-206 -316 0
-207 -317 0
-208 -318 0
-209 -319 0
-210 -320 0
-206 -426 0
-207 -427 0
-208 -428 0
-209 -429 0
-210 -430 0
-206 -476 0
-207 -477 0
-208 -478 0
-209 -479 0
-210 -480 0
-211 -251 0
-212 -252 0
-213 -253 0
-214 -254 0
-215 -255 0
-211 -391 0
-212 -392 0
-213 -393 0
-214 -394 0
-215 -395 0
-211 -421 0
-212 -422 0
-213 -423 0
-214 -424 0
-215 -425 0
-211 -451 0
-212 -452 0
-213 -453 0
-214 -454 0
-215 -455 0
-211 -476 0
-212 -477 0
-213 -478 0
-214 -479 0
-215 -480 0
-211 -491 0
-212 -492 0
-213 -493 0
-214 -494 0
-215 -495 0
-216 -276 0
-217 -277 0
-218 -278 0
-219 -279 0
-220 -280 0
-216 -326 0
-217 -327 0
-218 -328 0
-219 -329 0
-220 -330 0
-216 -371 0
-217 -372 0
-218 -373 0
-219 -374 0
-220 -375 0
-216 -386 0
-217 -387 0
-218 -388 0
-219 -389 0
-220 -390 0
-221 -251 0
-222 -252 0
-223 -253 0
-224 -254 0
-225 -255 0
-221 -291 0
-222 -292 0
-223 -293 0
-224 -294 0
-225 -295 0
-221 -316 0
-222 -317 0
-223 -318 0
-224 -319 0
-225 -320 0
-221 -416 0
-222 -417 0
-223 -418 0
-224 -419 0
-225 -420 0
-221 -431 0
-222 -432 0
-223 -433 0
-224 -434 0
-225 -435 0
-226 -306 0
-227 -307 0
-228 -308 0
-229 -309 0
-230 -310 0
-226 -356 0
-227 -357 0
-228 -358 0
-229 -359 0
-230 -360 0
-226 -456 0
-227 -457 0
-228 -458 0
-229 -459 0
-230 -460 0
-231 -261 0
-232 -262 0
-233 -263 0
-234 -264 0
-235 -265 0
-231 -266 0
-232 -267 0
-233 -268 0
-234 -269 0
-235 -270 0
-231 -351 0
-232 -352 0
-233 -353 0
-234 -354 0
-235 -355 0
-231 -391 0
-232 -392 0
-233 -393 0
-234 -394 0
-235 -395 0
-236 -371 0
-237 -372 0
-238 -373 0
-239 -374 0
-240 -375 0
-236 -426 0
-237 -427 0
-238 -428 0
-239 -429 0
-240 -430 0
-236 -481 0
-237 -482 0
-238 -483 0
-239 -484 0
-240 -485 0
-241 -296 0
-242 -297 0
-243 -298 0
-244 -299 0
-245 -300 0
-241 -336 0
-242 -337 0
-243 -338 0
-244 -339 0
-245 -340 0
-241 -371 0
-242 -372 0
-243 -373 0
-244 -374 0
-245 -375 0
-241 -411 0
-242 -412 0
-243 -413 0
-244 -414 0
-245 -415 0
-241 -496 0
-242 -497 0
-243 -498 0
-244 -499 0
-245 -500 0
-246 -311 0
-247 -312 0
-248 -313 0
-249 -314 0
-250 -315 0
-246 -451 0
-247 -452 0
-248 -453 0
-249 -454 0
-250 -455 0
-251 -311 0
-252 -312 0
-253 -313 0
-254 -314 0
-255 -315 0
-251 -341 0
-252 -342 0
-253 -343 0
-254 -344 0
-255 -345 0
-251 -411 0
-252 -412 0
-253 -413 0
-254 -414 0
-255 -415 0
-251 -431 0
-252 -432 0
-253 -433 0
-254 -434 0
-255 -435 0
-251 -486 0
-252 -487 0
-253 -488 0
-254 -489 0
-255 -490 0
-256 -361 0
-257 -362 0
-258 -363 0
-259 -364 0
-260 -365 0
-256 -396 0
-257 -397 0
-258 -398 0
-259 -399 0
-260 -400 0
-256 -431 0
-257 -432 0
-258 -433 0
-259 -434 0
-260 -435 0
-256 -496 0
-257 -497 0
-258 -498 0
-259 -499 0
-260 -500 0
-261 -326 0
-262 -327 0
-263 -328 0
-264 -329 0
-265 -330 0
-261 -341 0
-262 -342 0
-263 -343 0
-264 -344 0
-265 -345 0
-261 -356 0
-262 -357 0
-263 -358 0
-264 -359 0
-265 -360 0
-261 -391 0
-262 -392 0
-263 -393 0
-264 -394 0
-265 -395 0
-261 -426 0
-262 -427 0
-263 -428 0
-264 -429 0
-265 -430 0
-266 -341 0
-267 -342 0
-268 -343 0
-269 -344 0
-270 -345 0
-266 -456 0
-267 -457 0
-268 -458 0
-269 -459 0
-270 -460 0
-266 -491 0
-267 -492 0
-268 -493 0
-269 -494 0
-270 -495 0
-271 -331 0
-272 -332 0
-273 -333 0
-274 -334 0
-275 -335 0
-271 -346 0
-272 -347 0
-273 -348 0
-274 -349 0
-275 -350 0
-271 -381 0
-272 -382 0
-273 -383 0
-274 -384 0
-275 -385 0
-271 -401 0
-272 -402 0
-273 -403 0
-274 -404 0
-275 -405 0
-271 -466 0
-272 -467 0
-273 -468 0
-274 -469 0
-275 -470 0
-276 -416 0
-277 -417 0
-278 -418 0
-279 -419 0
-280 -420 0
-281 -401 0
-282 -402 0
-283 -403 0
-284 -404 0
-285 -405 0
-281 -416 0
-282 -417 0
-283 -418 0
-284 -419 0
-285 -420 0
-281 -431 0
-282 -432 0
-283 -433 0
-284 -434 0
-285 -435 0
-281 -456 0
-282 -457 0
-283 -458 0
-284 -459 0
-285 -460 0
-286 -351 0
-287 -352 0
-288 -353 0
-289 -354 0
-290 -355 0
-286 -361 0
-287 -362 0
-288 -363 0
-289 -364 0
-290 -365 0
-286 -381 0
-287 -382 0
-288 -383 0
-289 -384 0
-290 -385 0
-291 -426 0
-292 -427 0
-293 -428 0
-294 -429 0
-295 -430 0
-296 -476 0
-297 -477 0
-298 -478 0
-299 -479 0
-300 -480 0
-296 -491 0
-297 -492 0
-298 -493 0
-299 -494 0
-300 -495 0
-301 -476 0
-302 -477 0
-303 -478 0
-304 -479 0
-305 -480 0
-306 -376 0
-307 -377 0
-308 -378 0
-309 -379 0
-310 -380 0
-311 -336 0
-312 -337 0
-313 -338 0
-314 -339 0
-315 -340 0
-311 -351 0
-312 -352 0
-313 -353 0
-314 -354 0
-315 -355 0
-311 -361 0
-312 -362 0
-313 -363 0
-314 -364 0
-315 -365 0
-311 -376 0
-312 -377 0
-313 -378 0
-314 -379 0
-315 -380 0
-311 -401 0
-312 -402 0
-313 -403 0
-314 -404 0
-315 -405 0
-311 -446 0
-312 -447 0
-313 -448 0
-314 -449 0
-315 -450 0
-316 -446 0
-317 -447 0
-318 -448 0
-319 -449 0
-320 -450 0
-321 -386 0
-322 -387 0
-323 -388 0
-324 -389 0
-325 -390 0
-321 -391 0
-322 -392 0
-323 -393 0
-324 -394 0
-325 -395 0
-321 -491 0
-322 -492 0
-323 -493 0
-324 -494 0
-325 -495 0
-326 -436 0
-327 -437 0
-328 -438 0
-329 -439 0
-330 -440 0
-331 -416 0
-332 -417 0
-333 -418 0
-334 -419 0
-335 -420 0
-331 -461 0
-332 -462 0
-333 -463 0
-334 -464 0
-335 -465 0
-336 -436 0
-337 -437 0
-338 -438 0
-339 -439 0
-340 -440 0
-336 -446 0
-337 -447 0
-338 -448 0
-339 -449 0
-340 -450 0
-336 -456 0
-337 -457 0
-338 -458 0
-339 -459 0
-340 -460 0
-341 -371 0
-342 -372 0
-343 -373 0
-344 -374 0
-345 -375 0
-341 -486 0
-342 -487 0
-343 -488 0
-344 -489 0
-345 -490 0
-351 -396 0
-352 -397 0
-353 -398 0
-354 -399 0
-355 -400 0
-351 -426 0
-352 -427 0
-353 -428 0
-354 -429 0
-355 -430 0
-356 -426 0
-357 -427 0
-358 -428 0
-359 -429 0
-360 -430 0
-361 -416 0
-362 -417 0
-363 -418 0
-364 -419 0
-365 -420 0
-361 -486 0
-362 -487 0
-363 -488 0
-364 -489 0
-365 -490 0
-361 -491 0
-362 -492 0
-363 -493 0
-364 -494 0
-365 -495 0
-366 -401 0
-367 -402 0
-368 -403 0
-369 -404 0
-370 -405 0
-366 -471 0
-367 -472 0
-368 -473 0
-369 -474 0
-370 -475 0
-366 -491 0
-367 -492 0
-368 -493 0
-369 -494 0
-370 -495 0
-371 -476 0
-372 -477 0
-373 -478 0
-374 -479 0
-375 -480 0
-371 -486 0
-372 -487 0
-373 -488 0
-374 -489 0
-375 -490 0
-371 -496 0
-372 -497 0
-373 -498 0
-374 -499 0
-375 -500 0
-376 -416 0
-377 -417 0
-378 -418 0
-379 -419 0
-380 -420 0
-376 -456 0
-377 -457 0
-378 -458 0
-379 -459 0
-380 -460 0
-376 -491 0
-377 -492 0
-378 -493 0
-379 -494 0
-380 -495 0
-381 -451 0
-382 -452 0
-383 -453 0
-384 -454 0
-385 -455 0
-386 -471 0
-387 -472 0
-388 -473 0
-389 -474 0
-390 -475 0
-386 -486 0
-387 -487 0
-388 -488 0
-389 -489 0
-390 -490 0
-396 -431 0
-397 -432 0
-398 -433 0
-399 -434 0
-400 -435 0
-396 -446 0
-397 -447 0
-398 -448 0
-399 -449 0
-400 -450 0
-401 -486 0
-402 -487 0
-403 -488 0
-404 -489 0
-405 -490 0
-411 -436 0
-412 -437 0
-413 -438 0
-414 -439 0
-415 -440 0
-411 -476 0
-412 -477 0
-413 -478 0
-414 -479 0
-415 -480 0
-416 -441 0
-417 -442 0
-418 -443 0
-419 -444 0
-420 -445 0
-421 -451 0
-422 -452 0
-423 -453 0
-424 -454 0
-425 -455 0
-421 -461 0
-422 -462 0
-423 -463 0
-424 -464 0
-425 -465 0
-421 -491 0
-422 -492 0
-423 -493 0
-424 -494 0
-425 -495 0
-421 -496 0
-422 -497 0
-423 -498 0
-424 -499 0
-425 -500 0
-426 -451 0
-427 -452 0
-428 -453 0
-429 -454 0
-430 -455 0
-431 -476 0
-432 -477 0
-433 -478 0
-434 -479 0
-435 -480 0
-446 -476 0
-447 -477 0
-448 -478 0
-449 -479 0
-450 -480 0
-451 -476 0
-452 -477 0
-453 -478 0
-454 -479 0
-455 -480 0
